c File: instances/24_0.20_2.col
c
c Description: Random graph of size 24 vertices and P(0.2) of edges between any two vertices.
p col 24 276
e 1 3
e 1 6
e 1 7
e 1 16
e 1 23
e 2 12
e 2 14
e 2 15
e 2 18
e 3 5
e 3 6
e 3 21
e 3 22
e 4 5
e 4 14
e 4 20
e 5 6
e 5 9
e 5 10
e 5 14
e 5 16
e 5 19
e 5 20
e 5 21
e 5 23
e 5 24
e 6 12
e 6 13
e 6 14
e 6 19
e 6 20
e 6 21
e 7 11
e 7 19
e 7 23
e 8 13
e 8 18
e 9 10
e 9 14
e 9 16
e 9 17
e 10 17
e 10 18
e 11 12
e 11 16
e 11 18
e 11 19
e 11 23
e 13 17
e 14 17
e 14 18
e 14 22
e 15 17
e 15 18
e 16 20
e 16 23
e 17 23
e 18 23
e 20 22
e 21 24